c colouring generated by benchmark framework
p edge 450 5734
v 1 10
v 2 0
v 3 9
v 4 7
v 5 1
v 6 0
v 7 0
v 8 9
v 9 4
v 10 6
v 11 10
v 12 0
v 13 8
v 14 8
v 15 8
v 16 9
v 17 7
v 18 7
v 19 9
v 20 6
v 21 8
v 22 0
v 23 0
v 24 3
v 25 9
v 26 2
v 27 9
v 28 0
v 29 2
v 30 6
v 31 8
v 32 2
v 33 9
v 34 1
v 35 2
v 36 8
v 37 1
v 38 10
v 39 1
v 40 2
v 41 7
v 42 3
v 43 9
v 44 6
v 45 5
v 46 10
v 47 2
v 48 9
v 49 6
v 50 1
v 51 6
v 52 5
v 53 2
v 54 2
v 55 10
v 56 1
v 57 0
v 58 2
v 59 3
v 60 10
v 61 2
v 62 7
v 63 1
v 64 0
v 65 7
v 66 7
v 67 8
v 68 0
v 69 0
v 70 5
v 71 8
v 72 8
v 73 2
v 74 2
v 75 6
v 76 7
v 77 3
v 78 6
v 79 9
v 80 7
v 81 7
v 82 5
v 83 4
v 84 2
v 85 0
v 86 8
v 87 7
v 88 0
v 89 8
v 90 9
v 91 0
v 92 6
v 93 7
v 94 10
v 95 10
v 96 4
v 97 4
v 98 8
v 99 8
v 100 1
v 101 5
v 102 1
v 103 8
v 104 2
v 105 8
v 106 3
v 107 9
v 108 9
v 109 4
v 110 10
v 111 1
v 112 0
v 113 5
v 114 4
v 115 10
v 116 6
v 117 0
v 118 1
v 119 2
v 120 8
v 121 10
v 122 1
v 123 4
v 124 8
v 125 8
v 126 1
v 127 10
v 128 7
v 129 2
v 130 9
v 131 7
v 132 0
v 133 5
v 134 0
v 135 9
v 136 3
v 137 2
v 138 0
v 139 9
v 140 6
v 141 6
v 142 8
v 143 5
v 144 5
v 145 9
v 146 10
v 147 2
v 148 4
v 149 4
v 150 7
v 151 8
v 152 7
v 153 1
v 154 0
v 155 3
v 156 5
v 157 8
v 158 9
v 159 0
v 160 8
v 161 6
v 162 3
v 163 10
v 164 3
v 165 9
v 166 4
v 167 0
v 168 7
v 169 9
v 170 10
v 171 3
v 172 9
v 173 9
v 174 6
v 175 10
v 176 8
v 177 7
v 178 7
v 179 5
v 180 1
v 181 7
v 182 6
v 183 4
v 184 6
v 185 7
v 186 10
v 187 4
v 188 8
v 189 6
v 190 9
v 191 10
v 192 3
v 193 9
v 194 9
v 195 6
v 196 10
v 197 5
v 198 10
v 199 1
v 200 5
v 201 4
v 202 1
v 203 0
v 204 4
v 205 8
v 206 7
v 207 4
v 208 10
v 209 2
v 210 3
v 211 1
v 212 6
v 213 9
v 214 1
v 215 9
v 216 10
v 217 10
v 218 3
v 219 2
v 220 8
v 221 4
v 222 5
v 223 4
v 224 2
v 225 10
v 226 6
v 227 0
v 228 4
v 229 9
v 230 1
v 231 6
v 232 6
v 233 3
v 234 4
v 235 8
v 236 1
v 237 3
v 238 5
v 239 10
v 240 8
v 241 10
v 242 0
v 243 7
v 244 10
v 245 9
v 246 3
v 247 0
v 248 4
v 249 0
v 250 3
v 251 6
v 252 8
v 253 1
v 254 0
v 255 6
v 256 3
v 257 8
v 258 2
v 259 5
v 260 6
v 261 4
v 262 6
v 263 3
v 264 2
v 265 9
v 266 4
v 267 7
v 268 0
v 269 1
v 270 10
v 271 9
v 272 0
v 273 7
v 274 9
v 275 5
v 276 5
v 277 3
v 278 2
v 279 4
v 280 5
v 281 2
v 282 8
v 283 8
v 284 3
v 285 10
v 286 5
v 287 9
v 288 10
v 289 4
v 290 7
v 291 8
v 292 0
v 293 2
v 294 1
v 295 9
v 296 8
v 297 3
v 298 4
v 299 2
v 300 7
v 301 1
v 302 6
v 303 4
v 304 7
v 305 9
v 306 10
v 307 5
v 308 4
v 309 2
v 310 8
v 311 6
v 312 5
v 313 4
v 314 2
v 315 10
v 316 10
v 317 3
v 318 2
v 319 6
v 320 1
v 321 4
v 322 10
v 323 3
v 324 3
v 325 10
v 326 1
v 327 8
v 328 4
v 329 6
v 330 8
v 331 8
v 332 2
v 333 4
v 334 7
v 335 3
v 336 5
v 337 9
v 338 2
v 339 3
v 340 10
v 341 7
v 342 5
v 343 1
v 344 0
v 345 3
v 346 2
v 347 3
v 348 5
v 349 10
v 350 8
v 351 5
v 352 3
v 353 3
v 354 3
v 355 4
v 356 9
v 357 7
v 358 9
v 359 3
v 360 6
v 361 10
v 362 9
v 363 0
v 364 0
v 365 9
v 366 5
v 367 9
v 368 0
v 369 4
v 370 5
v 371 8
v 372 1
v 373 4
v 374 1
v 375 6
v 376 7
v 377 7
v 378 7
v 379 1
v 380 1
v 381 4
v 382 0
v 383 1
v 384 4
v 385 8
v 386 5
v 387 6
v 388 4
v 389 5
v 390 3
v 391 4
v 392 0
v 393 2
v 394 1
v 395 2
v 396 2
v 397 0
v 398 9
v 399 1
v 400 3
v 401 2
v 402 0
v 403 4
v 404 2
v 405 6
v 406 7
v 407 0
v 408 8
v 409 3
v 410 4
v 411 4
v 412 4
v 413 5
v 414 0
v 415 6
v 416 10
v 417 4
v 418 5
v 419 9
v 420 9
v 421 8
v 422 5
v 423 5
v 424 7
v 425 3
v 426 8
v 427 1
v 428 4
v 429 0
v 430 10
v 431 7
v 432 4
v 433 1
v 434 3
v 435 1
v 436 7
v 437 8
v 438 6
v 439 1
v 440 8
v 441 2
v 442 2
v 443 3
v 444 1
v 445 6
v 446 8
v 447 9
v 448 3
v 449 6
v 450 6
